min: 420 x1 + 962 x2 + 610 x3 + 84 x4 + 151 x5 + 305 x6 + 892 x7 + 297 x8 + 721 x9 + 240 x10;

r1: x5 + x6 >= 1;
r2: x8 + x2 + x10 >= 1;
r3: x8 + x6 >= 1;
r4: x10 >= 1;
r5: x5 >= 1;
r6: x5 + x1 + x8 >= 1;
r7: x5 >= 1;
r8: x10 >= 1;
r9: x4 + x9 >= 1;
r10: x6 >= 1;
r11: x1 + x3 + x5 + x7 >= 1;
r12: x9 + x6 >= 1;
r13: x9 + x5 + x7 + x1 >= 1;
r14: x6 + x3 >= 1;
r15: x8 + x7 >= 1;
r16: x4 >= 1;
r17: x10 + x6 + x2 >= 1;
r18: x2 + x7 >= 1;
r19: x2 + x9 + x8 + x7 >= 1;
r20: x3 + x8 >= 1;
r21: x1 + x10 + x5 >= 1;
r22: x6 >= 1;
r23: x5 + x2 + x3 + x8 >= 1;
r24: x2 + x4 >= 1;
r25: x7 >= 1;
r26: x1 + x2 + x3 >= 1;
r27: x8 >= 1;
r28: x10 + x1 + x2 + x8 >= 1;
r29: x9 >= 1;
r30: x1 + x7 >= 1;

bin x1, x2, x3, x4, x5, x6, x7, x8, x9, x10;
